     # Non-bonded interactions (pair-wise)
     pair_coeff           1          1               0.018252             2.467643            
     pair_coeff           1          2               0.013643             2.457642            
     pair_coeff           1          3               0.032684             3.088367            
     pair_coeff           1          4               0.033132             3.092889            
     pair_coeff           1          5               0.031915             3.123188            
     pair_coeff           2          2               0.010204             2.447434            
     pair_coeff           2          3               0.023993             3.085134            
     pair_coeff           2          4               0.024321             3.089680            
     pair_coeff           2          5               0.023419             3.120132            
     pair_coeff           3          3               0.129282             3.386973            
     pair_coeff           3          4               0.131545             3.389828            
     pair_coeff           3          5               0.129833             3.409183            
     pair_coeff           4          4               0.133852             3.392671            
     pair_coeff           4          5               0.132132             3.411947            
     pair_coeff           5          5               0.130579             3.430693            

     # Stretching interactions
     bond_coeff           1           367.938739           1.093271            
     bond_coeff           2           359.363093           1.095524            
     bond_coeff           3           357.824476           1.096575            
     bond_coeff           4           294.361657           1.526147            
     bond_coeff           5           289.824065           1.525767            
     bond_coeff           6           290.240535           1.525287            

     # Bending interactions
     angle_coeff          1           41.962066            107.495171          
     angle_coeff          2           43.224241            110.873631          
     angle_coeff          3           43.018815            106.054406          
     angle_coeff          4           45.222414            109.693614          
     angle_coeff          5           44.210074            109.051048          
     angle_coeff          6           43.277297            105.989161          
     angle_coeff          7           43.611988            109.344547          
     angle_coeff          8           43.593593            109.339475          
     angle_coeff          9           53.738406            113.005696          
     angle_coeff          10          50.618101            113.405649          

     # Dihedral interactions
     dihedral_coeff       1                            0.110238            -0.048852             0.206979            -0.015724            
     dihedral_coeff       2                           -0.238767            -0.072612             0.533725            -0.036539            
     dihedral_coeff       3                            0.077698            -0.758255             0.296852            -0.142573            
     dihedral_coeff       4                           -0.127848            -0.241782             0.231764            -0.182889            
     dihedral_coeff       5                           -0.228887             0.534766             0.420231             0.004728            
     dihedral_coeff       6                            0.102680            -0.948204             0.321131            -0.216006            
     dihedral_coeff       7                           -0.343973             0.252297             0.377246            -0.040626            
     dihedral_coeff       8                            0.089239             0.571239             0.751144            -0.199131            
     dihedral_coeff       9                           -0.082353             0.827762             0.238227             0.012414            
